p cnf 424 1187
a 396 397 398 399 400 401 402 403 404 405 406 407 408 409 410 411 412 413 414 415 416 417 418 419 420 421 422 423 0
e 1 2 3 4 5 6 7 8 9 10 11 12 13 14 15 16 17 18 19 20 21 22 23 24 25 26 27 28 29 30 31 32 33 34 35 36 37 38 39 40 41 42 43 44 45 46 47 48 49 50 51 52 53 54 55 56 57 58 59 60 61 62 63 64 65 66 67 68 69 70 71 72 73 74 75 76 77 78 79 80 81 82 83 84 85 86 87 88 89 90 91 92 93 94 95 96 97 98 99 100 101 102 103 104 105 106 107 108 109 110 111 112 113 114 115 116 117 118 119 120 121 122 123 124 125 126 127 128 129 130 131 132 133 134 135 136 137 138 139 140 141 142 143 144 145 146 147 148 149 150 151 152 153 154 155 156 157 158 159 160 161 162 163 164 165 166 167 168 169 170 171 172 173 174 175 176 177 178 179 180 181 182 183 184 185 186 187 188 189 190 191 192 193 194 195 196 197 198 199 200 201 202 203 204 205 206 207 208 209 210 211 212 213 214 215 216 217 218 219 220 221 222 223 224 225 226 227 228 229 230 231 232 233 234 235 236 237 238 239 240 241 242 243 244 245 246 247 248 249 250 251 252 253 254 255 256 257 258 259 260 261 262 263 264 265 266 267 268 269 270 271 272 273 274 275 276 277 278 279 280 281 282 283 284 285 286 287 288 289 290 291 292 293 294 295 296 297 298 299 300 301 302 303 304 305 306 307 308 309 310 311 312 313 314 315 316 317 318 319 320 321 322 323 324 325 326 327 328 329 330 331 332 333 334 335 336 337 338 339 340 341 342 343 344 345 346 347 348 349 350 351 352 353 354 355 356 357 358 359 360 361 362 363 364 365 366 367 368 369 370 371 372 373 374 375 376 377 378 379 380 381 382 383 384 385 386 387 388 389 390 391 392 393 394 395 424 0
401 403 1 0
-401 -1 0
-403 -1 0
-401 417 2 0
401 -2 0
-417 -2 0
1 2 3 0
-1 -3 0
-2 -3 0
401 404 4 0
-401 -4 0
-404 -4 0
-401 418 5 0
401 -5 0
-418 -5 0
4 5 6 0
-4 -6 0
-5 -6 0
401 405 7 0
-401 -7 0
-405 -7 0
-401 419 8 0
401 -8 0
-419 -8 0
7 8 9 0
-7 -9 0
-8 -9 0
401 406 10 0
-401 -10 0
-406 -10 0
-401 420 11 0
401 -11 0
-420 -11 0
10 11 12 0
-10 -12 0
-11 -12 0
401 407 13 0
-401 -13 0
-407 -13 0
-401 421 14 0
401 -14 0
-421 -14 0
13 14 15 0
-13 -15 0
-14 -15 0
401 408 16 0
-401 -16 0
-408 -16 0
-401 422 17 0
401 -17 0
-422 -17 0
16 17 18 0
-16 -18 0
-17 -18 0
-401 423 19 0
401 -19 0
-423 -19 0
397 401 20 0
-397 -20 0
-401 -20 0
19 20 21 0
-19 -21 0
-20 -21 0
396 -401 22 0
-396 -22 0
401 -22 0
399 401 23 0
-399 -23 0
-401 -23 0
22 23 24 0
-22 -24 0
-23 -24 0
400 -403 25 0
-400 -25 0
403 -25 0
-400 403 26 0
400 -26 0
-403 -26 0
25 26 27 0
-25 -27 0
-26 -27 0
-398 -27 28 0
398 -28 0
27 -28 0
-402 -409 29 0
402 -29 0
409 -29 0
398 -29 30 0
-398 -30 0
29 -30 0
402 -417 31 0
-402 -31 0
417 -31 0
398 -31 32 0
-398 -32 0
31 -32 0
30 32 33 0
-30 -33 0
-32 -33 0
28 -33 34 0
-28 -34 0
33 -34 0
402 418 35 0
-402 -35 0
-418 -35 0
-402 410 36 0
402 -36 0
-410 -36 0
35 36 37 0
-35 -37 0
-36 -37 0
398 -37 38 0
-398 -38 0
37 -38 0
400 403 39 0
-400 -39 0
-403 -39 0
404 39 40 0
-404 -40 0
-39 -40 0
-404 -39 41 0
404 -41 0
39 -41 0
40 41 42 0
-40 -42 0
-41 -42 0
-398 -42 43 0
398 -43 0
42 -43 0
38 43 44 0
-38 -44 0
-43 -44 0
402 419 45 0
-402 -45 0
-419 -45 0
398 -45 46 0
-398 -46 0
45 -46 0
-402 411 47 0
402 -47 0
-411 -47 0
398 -47 48 0
-398 -48 0
47 -48 0
46 48 49 0
-46 -49 0
-48 -49 0
403 404 50 0
-403 -50 0
-404 -50 0
400 -50 51 0
-400 -51 0
50 -51 0
-405 51 52 0
405 -52 0
-51 -52 0
-398 52 53 0
398 -53 0
-52 -53 0
404 405 54 0
-404 -54 0
-405 -54 0
403 -54 55 0
-403 -55 0
54 -55 0
400 -55 56 0
-400 -56 0
55 -56 0
-53 56 57 0
53 -57 0
-56 -57 0
-49 57 58 0
49 -58 0
-57 -58 0
402 420 59 0
-402 -59 0
-420 -59 0
398 -59 60 0
-398 -60 0
59 -60 0
-402 412 61 0
402 -61 0
-412 -61 0
398 -61 62 0
-398 -62 0
61 -62 0
60 62 63 0
-60 -63 0
-62 -63 0
405 406 64 0
-405 -64 0
-406 -64 0
-51 -64 65 0
51 -65 0
64 -65 0
-398 65 66 0
398 -66 0
-65 -66 0
-406 56 67 0
406 -67 0
-56 -67 0
-66 67 68 0
66 -68 0
-67 -68 0
-63 68 69 0
63 -69 0
-68 -69 0
402 421 70 0
-402 -70 0
-421 -70 0
398 -70 71 0
-398 -71 0
70 -71 0
-402 413 72 0
402 -72 0
-413 -72 0
398 -72 73 0
-398 -73 0
72 -73 0
71 73 74 0
-71 -74 0
-73 -74 0
-39 -64 75 0
39 -75 0
64 -75 0
404 -75 76 0
-404 -76 0
75 -76 0
-407 76 77 0
407 -77 0
-76 -77 0
-398 77 78 0
398 -78 0
-77 -78 0
407 -75 79 0
-407 -79 0
75 -79 0
404 -79 80 0
-404 -80 0
79 -80 0
-78 80 81 0
78 -81 0
-80 -81 0
-74 81 82 0
74 -82 0
-81 -82 0
402 422 83 0
-402 -83 0
-422 -83 0
398 -83 84 0
-398 -84 0
83 -84 0
-402 414 85 0
402 -85 0
-414 -85 0
398 -85 86 0
-398 -86 0
85 -86 0
84 86 87 0
-84 -87 0
-86 -87 0
407 408 88 0
-407 -88 0
-408 -88 0
-64 -88 89 0
64 -89 0
88 -89 0
-39 -89 90 0
39 -90 0
89 -90 0
404 -90 91 0
-404 -91 0
90 -91 0
-398 91 92 0
398 -92 0
-91 -92 0
-408 80 93 0
408 -93 0
-80 -93 0
-92 93 94 0
92 -94 0
-93 -94 0
-87 94 95 0
87 -95 0
-94 -95 0
-402 415 96 0
402 -96 0
-415 -96 0
398 -96 97 0
-398 -97 0
96 -97 0
402 423 98 0
-402 -98 0
-423 -98 0
398 -98 99 0
-398 -99 0
98 -99 0
97 99 100 0
-97 -100 0
-99 -100 0
-397 91 101 0
397 -101 0
-91 -101 0
-398 101 102 0
398 -102 0
-101 -102 0
-51 -89 103 0
51 -103 0
89 -103 0
397 -103 104 0
-397 -104 0
103 -104 0
-102 104 105 0
102 -105 0
-104 -105 0
-100 105 106 0
100 -106 0
-105 -106 0
-402 416 107 0
402 -107 0
-416 -107 0
398 -107 108 0
-398 -108 0
107 -108 0
398 402 109 0
-398 -109 0
-402 -109 0
396 -109 110 0
-396 -110 0
109 -110 0
108 110 111 0
-108 -111 0
-110 -111 0
397 399 112 0
-397 -112 0
-399 -112 0
-88 -112 113 0
88 -113 0
112 -113 0
-64 -113 114 0
64 -114 0
113 -114 0
-51 -114 115 0
51 -115 0
114 -115 0
-398 115 116 0
398 -116 0
-115 -116 0
397 -91 117 0
-397 -117 0
91 -117 0
-399 117 118 0
399 -118 0
-117 -118 0
-116 118 119 0
116 -119 0
-118 -119 0
-111 119 120 0
111 -120 0
-119 -120 0
-400 -401 121 0
400 -121 0
401 -121 0
-398 -121 122 0
398 -122 0
121 -122 0
-403 404 123 0
403 -123 0
-404 -123 0
400 -123 124 0
-400 -124 0
123 -124 0
-398 -124 125 0
398 -125 0
124 -125 0
-114 -125 126 0
114 -126 0
125 -126 0
122 126 127 0
-122 -127 0
-126 -127 0
403 -3 128 0
-403 -128 0
3 -128 0
-403 3 129 0
403 -129 0
-3 -129 0
128 129 130 0
-128 -130 0
-129 -130 0
6 128 131 0
-6 -131 0
-128 -131 0
-6 -128 132 0
6 -132 0
128 -132 0
131 132 133 0
-131 -133 0
-132 -133 0
6 -133 134 0
-6 -134 0
133 -134 0
-6 133 135 0
6 -135 0
-133 -135 0
134 135 136 0
-134 -136 0
-135 -136 0
9 128 137 0
-9 -137 0
-128 -137 0
-9 -128 138 0
9 -138 0
128 -138 0
137 138 139 0
-137 -139 0
-138 -139 0
9 -139 140 0
-9 -140 0
139 -140 0
-9 139 141 0
9 -141 0
-139 -141 0
140 141 142 0
-140 -142 0
-141 -142 0
12 128 143 0
-12 -143 0
-128 -143 0
-12 -128 144 0
12 -144 0
128 -144 0
143 144 145 0
-143 -145 0
-144 -145 0
406 -145 146 0
-406 -146 0
145 -146 0
-406 145 147 0
406 -147 0
-145 -147 0
146 147 148 0
-146 -148 0
-147 -148 0
406 -12 149 0
-406 -149 0
12 -149 0
-406 12 150 0
406 -150 0
-12 -150 0
-128 150 151 0
128 -151 0
-150 -151 0
128 -149 152 0
-128 -152 0
149 -152 0
151 152 153 0
-151 -153 0
-152 -153 0
15 -153 154 0
-15 -154 0
153 -154 0
-15 153 155 0
15 -155 0
-153 -155 0
154 155 156 0
-154 -156 0
-155 -156 0
15 -156 157 0
-15 -157 0
156 -157 0
-15 156 158 0
15 -158 0
-156 -158 0
157 158 159 0
-157 -159 0
-158 -159 0
18 -153 160 0
-18 -160 0
153 -160 0
-18 153 161 0
18 -161 0
-153 -161 0
160 161 162 0
-160 -162 0
-161 -162 0
401 -162 163 0
-401 -163 0
162 -163 0
-401 162 164 0
401 -164 0
-162 -164 0
163 164 165 0
-163 -165 0
-164 -165 0
401 -18 166 0
-401 -166 0
18 -166 0
-401 18 167 0
401 -167 0
-18 -167 0
153 167 168 0
-153 -168 0
-167 -168 0
-153 -166 169 0
153 -169 0
166 -169 0
168 169 170 0
-168 -170 0
-169 -170 0
21 -170 171 0
-21 -171 0
170 -171 0
-21 170 172 0
21 -172 0
-170 -172 0
171 172 173 0
-171 -173 0
-172 -173 0
21 -173 174 0
-21 -174 0
173 -174 0
-21 173 175 0
21 -175 0
-173 -175 0
174 175 176 0
-174 -176 0
-175 -176 0
24 -170 177 0
-24 -177 0
170 -177 0
-24 170 178 0
24 -178 0
-170 -178 0
177 178 179 0
-177 -179 0
-178 -179 0
24 -179 180 0
-24 -180 0
179 -180 0
-24 179 181 0
24 -181 0
-179 -181 0
180 181 182 0
-180 -182 0
-181 -182 0
-401 -170 183 0
401 -183 0
170 -183 0
401 170 184 0
-401 -184 0
-170 -184 0
183 184 185 0
-183 -185 0
-184 -185 0
-401 -185 186 0
401 -186 0
185 -186 0
401 185 187 0
-401 -187 0
-185 -187 0
186 187 188 0
-186 -188 0
-187 -188 0
34 -170 189 0
-34 -189 0
170 -189 0
-34 170 190 0
34 -190 0
-170 -190 0
189 190 191 0
-189 -191 0
-190 -191 0
398 -191 192 0
-398 -192 0
191 -192 0
-398 191 193 0
398 -193 0
-191 -193 0
192 193 194 0
-192 -194 0
-193 -194 0
398 -34 195 0
-398 -195 0
34 -195 0
-398 34 196 0
398 -196 0
-34 -196 0
170 196 197 0
-170 -197 0
-196 -197 0
-170 -195 198 0
170 -198 0
195 -198 0
197 198 199 0
-197 -199 0
-198 -199 0
44 -199 200 0
-44 -200 0
199 -200 0
-44 199 201 0
44 -201 0
-199 -201 0
200 201 202 0
-200 -202 0
-201 -202 0
403 -202 203 0
-403 -203 0
202 -203 0
-403 202 204 0
403 -204 0
-202 -204 0
203 204 205 0
-203 -205 0
-204 -205 0
403 -44 206 0
-403 -206 0
44 -206 0
-403 44 207 0
403 -207 0
-44 -207 0
199 207 208 0
-199 -208 0
-207 -208 0
-199 -206 209 0
199 -209 0
206 -209 0
208 209 210 0
-208 -210 0
-209 -210 0
-58 -210 211 0
58 -211 0
210 -211 0
58 210 212 0
-58 -212 0
-210 -212 0
211 212 213 0
-211 -213 0
-212 -213 0
398 -213 214 0
-398 -214 0
213 -214 0
-398 213 215 0
398 -215 0
-213 -215 0
214 215 216 0
-214 -216 0
-215 -216 0
398 58 217 0
-398 -217 0
-58 -217 0
-398 -58 218 0
398 -218 0
58 -218 0
210 218 219 0
-210 -219 0
-218 -219 0
-210 -217 220 0
210 -220 0
217 -220 0
219 220 221 0
-219 -221 0
-220 -221 0
-69 -221 222 0
69 -222 0
221 -222 0
69 221 223 0
-69 -223 0
-221 -223 0
222 223 224 0
-222 -224 0
-223 -224 0
403 -224 225 0
-403 -225 0
224 -225 0
-403 224 226 0
403 -226 0
-224 -226 0
225 226 227 0
-225 -227 0
-226 -227 0
403 69 228 0
-403 -228 0
-69 -228 0
-403 -69 229 0
403 -229 0
69 -229 0
221 229 230 0
-221 -230 0
-229 -230 0
-221 -228 231 0
221 -231 0
228 -231 0
230 231 232 0
-230 -232 0
-231 -232 0
-82 -232 233 0
82 -233 0
232 -233 0
82 232 234 0
-82 -234 0
-232 -234 0
233 234 235 0
-233 -235 0
-234 -235 0
-82 -235 236 0
82 -236 0
235 -236 0
82 235 237 0
-82 -237 0
-235 -237 0
236 237 238 0
-236 -238 0
-237 -238 0
-95 -232 239 0
95 -239 0
232 -239 0
95 232 240 0
-95 -240 0
-232 -240 0
239 240 241 0
-239 -241 0
-240 -241 0
-95 -241 242 0
95 -242 0
241 -242 0
95 241 243 0
-95 -243 0
-241 -243 0
242 243 244 0
-242 -244 0
-243 -244 0
-106 -232 245 0
106 -245 0
232 -245 0
106 232 246 0
-106 -246 0
-232 -246 0
245 246 247 0
-245 -247 0
-246 -247 0
-106 -247 248 0
106 -248 0
247 -248 0
106 247 249 0
-106 -249 0
-247 -249 0
248 249 250 0
-248 -250 0
-249 -250 0
-120 -232 251 0
120 -251 0
232 -251 0
120 232 252 0
-120 -252 0
-232 -252 0
251 252 253 0
-251 -253 0
-252 -253 0
-120 -253 254 0
120 -254 0
253 -254 0
120 253 255 0
-120 -255 0
-253 -255 0
254 255 256 0
-254 -256 0
-255 -256 0
127 -232 257 0
-127 -257 0
232 -257 0
-127 232 258 0
127 -258 0
-232 -258 0
257 258 259 0
-257 -259 0
-258 -259 0
127 -259 260 0
-127 -260 0
259 -260 0
-127 259 261 0
127 -261 0
-259 -261 0
260 261 262 0
-260 -262 0
-261 -262 0
-130 -136 263 0
130 -263 0
136 -263 0
-142 263 264 0
142 -264 0
-263 -264 0
142 -263 265 0
-142 -265 0
263 -265 0
264 265 266 0
-264 -266 0
-265 -266 0
-142 -263 267 0
142 -267 0
263 -267 0
-148 267 268 0
148 -268 0
-267 -268 0
148 -267 269 0
-148 -269 0
267 -269 0
268 269 270 0
-268 -270 0
-269 -270 0
-148 -267 271 0
148 -271 0
267 -271 0
-159 271 272 0
159 -272 0
-271 -272 0
159 -271 273 0
-159 -273 0
271 -273 0
272 273 274 0
-272 -274 0
-273 -274 0
-159 -271 275 0
159 -275 0
271 -275 0
-165 275 276 0
165 -276 0
-275 -276 0
165 -275 277 0
-165 -277 0
275 -277 0
276 277 278 0
-276 -278 0
-277 -278 0
-165 -275 279 0
165 -279 0
275 -279 0
-176 279 280 0
176 -280 0
-279 -280 0
176 -279 281 0
-176 -281 0
279 -281 0
280 281 282 0
-280 -282 0
-281 -282 0
-176 -279 283 0
176 -283 0
279 -283 0
-182 283 284 0
182 -284 0
-283 -284 0
182 -283 285 0
-182 -285 0
283 -285 0
284 285 286 0
-284 -286 0
-285 -286 0
-182 -283 287 0
182 -287 0
283 -287 0
-188 287 288 0
188 -288 0
-287 -288 0
188 -287 289 0
-188 -289 0
287 -289 0
288 289 290 0
-288 -290 0
-289 -290 0
-188 -287 291 0
188 -291 0
287 -291 0
-194 291 292 0
194 -292 0
-291 -292 0
194 -291 293 0
-194 -293 0
291 -293 0
292 293 294 0
-292 -294 0
-293 -294 0
-194 -291 295 0
194 -295 0
291 -295 0
-205 295 296 0
205 -296 0
-295 -296 0
205 -295 297 0
-205 -297 0
295 -297 0
296 297 298 0
-296 -298 0
-297 -298 0
-205 -295 299 0
205 -299 0
295 -299 0
-216 299 300 0
216 -300 0
-299 -300 0
216 -299 301 0
-216 -301 0
299 -301 0
300 301 302 0
-300 -302 0
-301 -302 0
-216 -299 303 0
216 -303 0
299 -303 0
-227 303 304 0
227 -304 0
-303 -304 0
227 -303 305 0
-227 -305 0
303 -305 0
304 305 306 0
-304 -306 0
-305 -306 0
-227 -303 307 0
227 -307 0
303 -307 0
-238 307 308 0
238 -308 0
-307 -308 0
238 -307 309 0
-238 -309 0
307 -309 0
308 309 310 0
-308 -310 0
-309 -310 0
-238 -307 311 0
238 -311 0
307 -311 0
-244 311 312 0
244 -312 0
-311 -312 0
244 -311 313 0
-244 -313 0
311 -313 0
312 313 314 0
-312 -314 0
-313 -314 0
-244 -311 315 0
244 -315 0
311 -315 0
-250 315 316 0
250 -316 0
-315 -316 0
250 -315 317 0
-250 -317 0
315 -317 0
316 317 318 0
-316 -318 0
-317 -318 0
-250 -315 319 0
250 -319 0
315 -319 0
-256 319 320 0
256 -320 0
-319 -320 0
256 -319 321 0
-256 -321 0
319 -321 0
320 321 322 0
-320 -322 0
-321 -322 0
-256 -319 323 0
256 -323 0
319 -323 0
-262 323 324 0
262 -324 0
-323 -324 0
262 -323 325 0
-262 -325 0
323 -325 0
324 325 326 0
-324 -326 0
-325 -326 0
142 -232 327 0
-142 -327 0
232 -327 0
232 266 328 0
-232 -328 0
-266 -328 0
327 328 329 0
-327 -329 0
-328 -329 0
148 -232 330 0
-148 -330 0
232 -330 0
232 270 331 0
-232 -331 0
-270 -331 0
330 331 332 0
-330 -332 0
-331 -332 0
159 -232 333 0
-159 -333 0
232 -333 0
232 274 334 0
-232 -334 0
-274 -334 0
333 334 335 0
-333 -335 0
-334 -335 0
165 -232 336 0
-165 -336 0
232 -336 0
232 278 337 0
-232 -337 0
-278 -337 0
336 337 338 0
-336 -338 0
-337 -338 0
176 -232 339 0
-176 -339 0
232 -339 0
232 282 340 0
-232 -340 0
-282 -340 0
339 340 341 0
-339 -341 0
-340 -341 0
182 -232 342 0
-182 -342 0
232 -342 0
232 286 343 0
-232 -343 0
-286 -343 0
342 343 344 0
-342 -344 0
-343 -344 0
188 -232 345 0
-188 -345 0
232 -345 0
232 290 346 0
-232 -346 0
-290 -346 0
345 346 347 0
-345 -347 0
-346 -347 0
194 -232 348 0
-194 -348 0
232 -348 0
232 294 349 0
-232 -349 0
-294 -349 0
348 349 350 0
-348 -350 0
-349 -350 0
205 -232 351 0
-205 -351 0
232 -351 0
232 298 352 0
-232 -352 0
-298 -352 0
351 352 353 0
-351 -353 0
-352 -353 0
216 -232 354 0
-216 -354 0
232 -354 0
232 302 355 0
-232 -355 0
-302 -355 0
354 355 356 0
-354 -356 0
-355 -356 0
227 -232 357 0
-227 -357 0
232 -357 0
232 306 358 0
-232 -358 0
-306 -358 0
357 358 359 0
-357 -359 0
-358 -359 0
-232 238 360 0
232 -360 0
-238 -360 0
232 310 361 0
-232 -361 0
-310 -361 0
360 361 362 0
-360 -362 0
-361 -362 0
-232 244 363 0
232 -363 0
-244 -363 0
232 314 364 0
-232 -364 0
-314 -364 0
363 364 365 0
-363 -365 0
-364 -365 0
-232 250 366 0
232 -366 0
-250 -366 0
232 318 367 0
-232 -367 0
-318 -367 0
366 367 368 0
-366 -368 0
-367 -368 0
-232 256 369 0
232 -369 0
-256 -369 0
232 322 370 0
-232 -370 0
-322 -370 0
369 370 371 0
-369 -371 0
-370 -371 0
-232 262 372 0
232 -372 0
-262 -372 0
232 326 373 0
-232 -373 0
-326 -373 0
372 373 374 0
-372 -374 0
-373 -374 0
-329 -332 375 0
329 -375 0
332 -375 0
335 -375 376 0
-335 -376 0
375 -376 0
335 376 377 0
-335 -377 0
-376 -377 0
338 377 378 0
-338 -378 0
-377 -378 0
338 378 379 0
-338 -379 0
-378 -379 0
-341 379 380 0
341 -380 0
-379 -380 0
-344 -380 381 0
344 -381 0
380 -381 0
347 -381 382 0
-347 -382 0
381 -382 0
347 382 383 0
-347 -383 0
-382 -383 0
350 383 384 0
-350 -384 0
-383 -384 0
350 384 385 0
-350 -385 0
-384 -385 0
-353 385 386 0
353 -386 0
-385 -386 0
-356 -386 387 0
356 -387 0
386 -387 0
359 -387 388 0
-359 -388 0
387 -388 0
359 388 389 0
-359 -389 0
-388 -389 0
362 389 390 0
-362 -390 0
-389 -390 0
362 390 391 0
-362 -391 0
-390 -391 0
-365 391 392 0
365 -392 0
-391 -392 0
-368 -392 393 0
368 -393 0
392 -393 0
-371 -393 394 0
371 -394 0
393 -394 0
-374 -394 395 0
374 -395 0
394 -395 0
424 0
395 0
